50
5837

311 798
288 610
154 906
173 604
557 669
793 40
138 700
21 735
741 509
245 970
377 245
194 759
321 272
787 214
459 736
198 623
188 689
33 362
135 315
145 883
143 850
228 772
748 613
456 872
772 315
666 51
751 39
612 611
997 578
439 366
378 459
916 419
485 812
851 292
975 453
206 398
748 662
98 110
156 909
299 625
590 637
37 932
461 165
272 667
145 878
769 492
171 849
311 453
773 959
692 489
